
(set-logic ALL) 

(declare-datatype MyList ((Nil) (Cons (head Real) (tail MyList)) )) 
(declare-fun l0 () MyList) 
(declare-fun l1 () MyList) 
(declare-fun l2 () MyList) 
(declare-fun l3 () MyList) 
(declare-fun i0 () Real) 
(declare-fun i1 () Real) 
(assert (or (= l3 Nil) (= l0 Nil) (= l3 Nil) (= l2 l1)) )
(assert (and (= l0 Nil) (= l1 Nil) (= l3 Nil)) )
(assert (and (= l1 Nil) (= l3 Nil) (= l2 Nil) (= l0 Nil)) )
(assert (and (= l2 l1) (is-Nil l3) (= l0 l3) (is-Nil Nil)) )
(assert (not (= l3 Nil)) )
(assert (= l1 l3) )
(assert (= l1 l3) )
(assert (or (is-Cons Nil) (= l0 Nil)) )
(check-sat)
